%%% Taken from Slack
%% It produces 1 plate with 2 vertical cell lines (the left side is equal to the right side of the plate
%% 2020/Nov/16: Finishes in aprox 4s 688msec
%% 2021/Mar/11: it takes about ??

num_rows = 16; %% height
num_cols = 24; %% width

vertical_cell_lines	 = 2;
horizontal_cell_lines = 1;

allow_empty_wells = false;
size_empty_edge = 1;

% New and used!
concentrations_on_different_rows = true;
concentrations_on_different_columns = true;

% New and unused! (Restriction: replicates_on_different_plates /\ replicates_on_same_plate == false)
replicates_on_different_plates = true;
replicates_on_same_plate = false;

%%% Compounds %%%
compounds = 7; %% number of drugs/compounds
compound_concentrations	 = [ 3 | i in 1..compounds];
compound_replicates	 = [ 4 | i in 1..compounds];

compound_names = ["(1)(M)(M)", "(2)(M)(M)", "(3)(M)(M)", "(1)(2)(M)", "(1)(3)(M)", "(2)(3)(M)", "(1)(2)(3)"];
compound_concentration_names = [|"1 uM","6.45 uM","12 uM"
|"1 uM","6.45 uM","12 uM"
|"1 uM","6.45 uM","12 uM"
|"1 uM","6.45 uM","12 uM"
|"1 uM","6.45 uM","12 uM"
|"1 uM","6.45 uM","12 uM"
|"1 uM","6.45 uM","12 uM"|];


compound_concentration_indicators = [ "" | i in 1..3];
 


%%% Combinations %%%
combinations = 0;
combination_concentrations = 0;
combination_names = [];
combination_concentration_names = [];


%% Controls %%
num_controls = 8+1;
control_concentrations = [ 3 | i in 1..num_controls-1]++[1];

control_replicates = [2| i in 1..8]++[8];
control_concentration_names = [|"1 uM","6.45 uM","12 uM"
|"1 uM","6.45 uM","12 uM"
|"1 uM","6.45 uM","12 uM"
|"1 uM","6.45 uM","12 uM"
|"1 uM","6.45 uM","12 uM"
|"1 uM","6.45 uM","12 uM"
|"1 uM","6.45 uM","12 uM"
|"1 uM","6.45 uM","12 uM"
|"blank","",""|];

control_names = ["[dmso]","[sorbitol]","[I]","[II]","[III]","[IV]","[V]","[VI]"]++["[Mctrl]"];


%% Blanks %%
%blanks = 8;
%blanks_name = "[Mctrl]";
 